
Gurobi 9.5.2 (win64) logging started Wed Apr 12 17:09:49 2023

Set parameter LogFile to value "./ccga_results/2023-04-12 17-09-47-535/MSP_TimeStampConvert_gurobi_log.txt"

Gurobi 9.5.2 (win64) logging started Wed Apr 12 17:09:49 2023

Set parameter LogFile to value "./ccga_results/2023-04-12 17-09-47-535/MSP_TimeStampConvert_gurobi_log.txt"
Set parameter TimeLimit to value 180
Gurobi Optimizer version 9.5.2 build v9.5.2rc0 (win64)
Thread count: 10 physical cores, 20 logical processors, using up to 20 threads
Optimize a model with 600 rows, 457 columns and 1482 nonzeros
Model fingerprint: 0xe7727400
Variable types: 25 continuous, 432 integer (432 binary)
Coefficient statistics:
  Matrix range     [1e+00, 1e+00]
  Objective range  [1e+00, 1e+00]
  Bounds range     [8e+02, 8e+02]
  RHS range        [1e+00, 1e+00]
Found heuristic solution: objective 19200.000000

Explored 0 nodes (0 simplex iterations) in 0.00 seconds (0.00 work units)
Thread count was 1 (of 20 available processors)

Solution count 1: 19200 

Optimal solution found (tolerance 5.00e-02)
Best objective 1.920000000000e+04, best bound 1.920000000000e+04, gap 0.0000%

User-callback calls 21, time in user-callback 0.00 sec
Gurobi Optimizer version 9.5.2 build v9.5.2rc0 (win64)
Thread count: 10 physical cores, 20 logical processors, using up to 20 threads
Optimize a model with 2173 rows, 961 columns and 6491 nonzeros
Model fingerprint: 0xb202fa3d
Variable types: 481 continuous, 480 integer (480 binary)
Coefficient statistics:
  Matrix range     [1e-01, 8e+02]
  Objective range  [1e+00, 1e+00]
  Bounds range     [8e+02, 8e+02]
  RHS range        [1e+00, 1e+08]

MIP start from previous solve did not produce a new incumbent solution

Presolve removed 513 rows and 166 columns
Presolve time: 0.02s
Presolved: 1660 rows, 795 columns, 5490 nonzeros
Variable types: 404 continuous, 391 integer (391 binary)
Found heuristic solution: objective 12164.655607
Found heuristic solution: objective 12225.639699

Root relaxation: objective 1.814733e+04, 655 iterations, 0.01 seconds (0.01 work units)

    Nodes    |    Current Node    |     Objective Bounds      |     Work
 Expl Unexpl |  Obj  Depth IntInf | Incumbent    BestBd   Gap | It/Node Time

*    0     0               0    18147.327470 18147.3275  0.00%     -    0s

Explored 1 nodes (880 simplex iterations) in 0.05 seconds (0.05 work units)
Thread count was 20 (of 20 available processors)

Solution count 3: 18147.3 12225.6 12164.7 

Optimal solution found (tolerance 5.00e-02)
Best objective 1.814732747000e+04, best bound 1.814732747000e+04, gap 0.0000%

User-callback calls 701, time in user-callback 0.00 sec
Gurobi Optimizer version 9.5.2 build v9.5.2rc0 (win64)
Thread count: 10 physical cores, 20 logical processors, using up to 20 threads
Optimize a model with 3746 rows, 1465 columns and 11500 nonzeros
Model fingerprint: 0xba21337b
Variable types: 937 continuous, 528 integer (528 binary)
Coefficient statistics:
  Matrix range     [1e-01, 8e+02]
  Objective range  [1e+00, 1e+00]
  Bounds range     [8e+02, 8e+02]
  RHS range        [1e+00, 1e+08]

MIP start from previous solve did not produce a new incumbent solution

Presolve removed 934 rows and 282 columns
Presolve time: 0.04s
Presolved: 2812 rows, 1183 columns, 9716 nonzeros
Variable types: 792 continuous, 391 integer (391 binary)
Found heuristic solution: objective 8775.0559072

Root relaxation: objective 1.685123e+04, 822 iterations, 0.01 seconds (0.01 work units)

    Nodes    |    Current Node    |     Objective Bounds      |     Work
 Expl Unexpl |  Obj  Depth IntInf | Incumbent    BestBd   Gap | It/Node Time

     0     0 16851.2343    0   14 8775.05591 16851.2343  92.0%     -    0s
H    0     0                    16587.486726 16851.2343  1.59%     -    0s

Explored 1 nodes (1164 simplex iterations) in 0.09 seconds (0.10 work units)
Thread count was 20 (of 20 available processors)

Solution count 2: 16587.5 8775.06 

Optimal solution found (tolerance 5.00e-02)
Best objective 1.658748672600e+04, best bound 1.685123431953e+04, gap 1.5900%

User-callback calls 637, time in user-callback 0.00 sec
Gurobi Optimizer version 9.5.2 build v9.5.2rc0 (win64)
Thread count: 10 physical cores, 20 logical processors, using up to 20 threads
Optimize a model with 5319 rows, 1969 columns and 16509 nonzeros
Model fingerprint: 0x0100f0ee
Variable types: 1393 continuous, 576 integer (576 binary)
Coefficient statistics:
  Matrix range     [1e-01, 8e+02]
  Objective range  [1e+00, 1e+00]
  Bounds range     [8e+02, 8e+02]
  RHS range        [1e+00, 1e+08]

MIP start from previous solve did not produce a new incumbent solution

Presolve removed 1354 rows and 401 columns
Presolve time: 0.04s
Presolved: 3965 rows, 1568 columns, 13941 nonzeros
Variable types: 1177 continuous, 391 integer (391 binary)
Found heuristic solution: objective 6763.6048997

Root relaxation: objective 1.449414e+04, 1818 iterations, 0.03 seconds (0.03 work units)

    Nodes    |    Current Node    |     Objective Bounds      |     Work
 Expl Unexpl |  Obj  Depth IntInf | Incumbent    BestBd   Gap | It/Node Time

     0     0 14494.1410    0   46 6763.60490 14494.1410   114%     -    0s
H    0     0                    14143.287052 14494.1410  2.48%     -    0s

Cutting planes:
  Gomory: 13
  Cover: 1
  MIR: 48
  Flow cover: 45

Explored 1 nodes (2216 simplex iterations) in 0.16 seconds (0.21 work units)
Thread count was 20 (of 20 available processors)

Solution count 2: 14143.3 6763.6 

Optimal solution found (tolerance 5.00e-02)
Best objective 1.414328705211e+04, best bound 1.449414099612e+04, gap 2.4807%

User-callback calls 660, time in user-callback 0.00 sec
Gurobi Optimizer version 9.5.2 build v9.5.2rc0 (win64)
Thread count: 10 physical cores, 20 logical processors, using up to 20 threads
Optimize a model with 6892 rows, 2473 columns and 21518 nonzeros
Model fingerprint: 0x8e9a2675
Variable types: 1849 continuous, 624 integer (624 binary)
Coefficient statistics:
  Matrix range     [1e-01, 8e+02]
  Objective range  [1e+00, 1e+00]
  Bounds range     [8e+02, 8e+02]
  RHS range        [1e+00, 1e+08]

MIP start from previous solve did not produce a new incumbent solution

Presolve removed 1773 rows and 519 columns
Presolve time: 0.06s
Presolved: 5119 rows, 1954 columns, 17769 nonzeros
Variable types: 1560 continuous, 394 integer (391 binary)
Found heuristic solution: objective 5889.6211112

Root relaxation: objective 1.185916e+04, 2962 iterations, 0.05 seconds (0.04 work units)

    Nodes    |    Current Node    |     Objective Bounds      |     Work
 Expl Unexpl |  Obj  Depth IntInf | Incumbent    BestBd   Gap | It/Node Time

     0     0 11859.1567    0   60 5889.62111 11859.1567   101%     -    0s
H    0     0                    11346.595324 11859.1567  4.52%     -    0s

Cutting planes:
  Gomory: 25
  Cover: 2
  MIR: 81
  Flow cover: 82

Explored 1 nodes (3324 simplex iterations) in 0.23 seconds (0.29 work units)
Thread count was 20 (of 20 available processors)

Solution count 2: 11346.6 5889.62 

Optimal solution found (tolerance 5.00e-02)
Best objective 1.134659532385e+04, best bound 1.185915668060e+04, gap 4.5173%

User-callback calls 711, time in user-callback 0.00 sec
Gurobi Optimizer version 9.5.2 build v9.5.2rc0 (win64)
Thread count: 10 physical cores, 20 logical processors, using up to 20 threads
Optimize a model with 8465 rows, 2977 columns and 26527 nonzeros
Model fingerprint: 0xe30bf3e2
Variable types: 2305 continuous, 672 integer (672 binary)
Coefficient statistics:
  Matrix range     [1e-01, 8e+02]
  Objective range  [1e+00, 1e+00]
  Bounds range     [8e+02, 8e+02]
  RHS range        [1e+00, 1e+08]

MIP start from previous solve did not produce a new incumbent solution

Presolve removed 2194 rows and 639 columns
Presolve time: 0.08s
Presolved: 6271 rows, 2338 columns, 21876 nonzeros
Variable types: 1944 continuous, 394 integer (391 binary)
Found heuristic solution: objective 5580.8174170

Root relaxation: objective 1.044877e+04, 4161 iterations, 0.08 seconds (0.07 work units)

    Nodes    |    Current Node    |     Objective Bounds      |     Work
 Expl Unexpl |  Obj  Depth IntInf | Incumbent    BestBd   Gap | It/Node Time

     0     0 10448.7744    0   87 5580.81742 10448.7744  87.2%     -    0s
H    0     0                    9696.4130974 10448.7744  7.76%     -    0s
     0     0 10440.4523    0  186 9696.41310 10440.4523  7.67%     -    0s
     0     0 10440.4523    0  182 9696.41310 10440.4523  7.67%     -    0s
H    0     0                    9704.7184377 10440.4523  7.58%     -    0s
     0     0 10434.9117    0  187 9704.71844 10434.9117  7.52%     -    0s
     0     0 10434.4476    0  170 9704.71844 10434.4476  7.52%     -    0s
     0     0 10434.4476    0  174 9704.71844 10434.4476  7.52%     -    0s
H    0     0                    9806.2663884 10434.4476  6.41%     -    0s
     0     0 10429.8975    0  168 9806.26639 10429.8975  6.36%     -    0s
     0     0 10429.7792    0  172 9806.26639 10429.7792  6.36%     -    0s
     0     0 10429.6883    0  172 9806.26639 10429.6883  6.36%     -    0s
     0     0 10429.6881    0  172 9806.26639 10429.6881  6.36%     -    0s
H    0     0                    9900.1028227 10429.6881  5.35%     -    0s
     0     0 10428.4466    0  182 9900.10282 10428.4466  5.34%     -    0s
     0     0 10427.9310    0  213 9900.10282 10427.9310  5.33%     -    0s
     0     0 10427.0588    0  175 9900.10282 10427.0588  5.32%     -    0s
     0     0 10426.9351    0  189 9900.10282 10426.9351  5.32%     -    0s
     0     0 10426.8683    0  195 9900.10282 10426.8683  5.32%     -    0s
     0     0 10426.8332    0  189 9900.10282 10426.8332  5.32%     -    0s
     0     0 10426.8332    0  195 9900.10282 10426.8332  5.32%     -    0s
H    0     0                    9948.3095263 10426.6243  4.81%     -    0s
     0     0 10426.6243    0  198 9948.30953 10426.6243  4.81%     -    0s

Cutting planes:
  Gomory: 8
  Cover: 2
  Clique: 1
  MIR: 179
  Flow cover: 139
  Relax-and-lift: 1

Explored 1 nodes (8767 simplex iterations) in 1.01 seconds (0.99 work units)
Thread count was 20 (of 20 available processors)

Solution count 6: 9948.31 9900.1 9806.27 ... 5580.82

Optimal solution found (tolerance 5.00e-02)
Best objective 9.948309526289e+03, best bound 1.042662434295e+04, gap 4.8080%

User-callback calls 991, time in user-callback 0.00 sec
Gurobi Optimizer version 9.5.2 build v9.5.2rc0 (win64)
Thread count: 10 physical cores, 20 logical processors, using up to 20 threads
Optimize a model with 10038 rows, 3481 columns and 31536 nonzeros
Model fingerprint: 0x623ec2dc
Variable types: 2761 continuous, 720 integer (720 binary)
Coefficient statistics:
  Matrix range     [1e-01, 8e+02]
  Objective range  [1e+00, 1e+00]
  Bounds range     [8e+02, 8e+02]
  RHS range        [1e+00, 1e+08]

MIP start from previous solve did not produce a new incumbent solution

Presolve removed 2615 rows and 759 columns
Presolve time: 0.10s
Presolved: 7423 rows, 2722 columns, 25926 nonzeros
Variable types: 2328 continuous, 394 integer (391 binary)
Found heuristic solution: objective 5418.0023988
Found heuristic solution: objective 5570.4690557

Root relaxation: objective 9.869766e+03, 4995 iterations, 0.11 seconds (0.10 work units)

    Nodes    |    Current Node    |     Objective Bounds      |     Work
 Expl Unexpl |  Obj  Depth IntInf | Incumbent    BestBd   Gap | It/Node Time

     0     0 9869.76632    0  118 5570.46906 9869.76632  77.2%     -    0s
H    0     0                    8725.0931437 9869.76632  13.1%     -    0s
     0     0 9767.68036    0  185 8725.09314 9767.68036  11.9%     -    0s
     0     0 9766.31684    0  172 8725.09314 9766.31684  11.9%     -    0s
     0     0 9766.22995    0  180 8725.09314 9766.22995  11.9%     -    0s
     0     0 9766.22995    0  180 8725.09314 9766.22995  11.9%     -    0s
     0     0 9749.19418    0  200 8725.09314 9749.19418  11.7%     -    0s
H    0     0                    9166.2602076 9747.96705  6.35%     -    0s
     0     0 9747.96705    0  201 9166.26021 9747.96705  6.35%     -    0s
     0     0 9746.20560    0  199 9166.26021 9746.20560  6.33%     -    0s
     0     0 9746.20560    0  202 9166.26021 9746.20560  6.33%     -    0s
     0     0 9741.03308    0  212 9166.26021 9741.03308  6.27%     -    0s
     0     0 9739.06343    0  230 9166.26021 9739.06343  6.25%     -    1s
     0     0 9737.33957    0  224 9166.26021 9737.33957  6.23%     -    1s
     0     0 9737.12795    0  226 9166.26021 9737.12795  6.23%     -    1s
     0     0 9737.09944    0  235 9166.26021 9737.09944  6.23%     -    1s
     0     0 9737.09944    0  235 9166.26021 9737.09944  6.23%     -    1s
     0     0 9728.47146    0  194 9166.26021 9728.47146  6.13%     -    1s
     0     0 9728.31215    0  214 9166.26021 9728.31215  6.13%     -    1s
     0     0 9728.30667    0  224 9166.26021 9728.30667  6.13%     -    1s
     0     0 9728.13210    0  214 9166.26021 9728.13210  6.13%     -    1s
     0     0 9727.90442    0  226 9166.26021 9727.90442  6.13%     -    1s
     0     0 9725.99487    0  231 9166.26021 9725.99487  6.11%     -    1s
     0     0 9725.78139    0  234 9166.26021 9725.78139  6.10%     -    1s
     0     0 9725.76455    0  234 9166.26021 9725.76455  6.10%     -    1s
     0     0 9724.59497    0  222 9166.26021 9724.59497  6.09%     -    1s
     0     0 9724.35240    0  228 9166.26021 9724.35240  6.09%     -    1s
     0     0 9724.35240    0  228 9166.26021 9724.35240  6.09%     -    1s
     0     0 9724.23203    0  237 9166.26021 9724.23203  6.09%     -    1s
     0     0 9724.22403    0  242 9166.26021 9724.22403  6.09%     -    1s
     0     0 9723.80451    0  232 9166.26021 9723.80451  6.08%     -    1s
     0     0 9723.73915    0  226 9166.26021 9723.73915  6.08%     -    1s
     0     0 9723.71518    0  217 9166.26021 9723.71518  6.08%     -    1s
     0     0 9723.70204    0  223 9166.26021 9723.70204  6.08%     -    1s
     0     0 9723.69394    0  231 9166.26021 9723.69394  6.08%     -    1s
H    0     0                    9171.8177593 9723.69394  6.02%     -    2s
     0     0 9723.67524    0  240 9171.81776 9723.67524  6.02%     -    2s
     0     0 9723.67524    0  161 9171.81776 9723.67524  6.02%     -    2s
     0     2 9723.67524    0  161 9171.81776 9723.67524  6.02%     -    2s
H  346   328                    9172.6135589 9717.05563  5.94%   123    3s
H  348   328                    9173.0301993 9717.05563  5.93%   123    3s
*  491   428              59    9177.2063449 9717.05563  5.88%   109    3s
H  580   512                    9250.4477269 9717.05563  5.04%   108    3s
H  582   512                    9289.0956025 9717.05563  4.61%   107    3s

Cutting planes:
  Gomory: 9
  Cover: 5
  Implied bound: 2
  MIR: 375
  Flow cover: 254
  RLT: 1
  Relax-and-lift: 22

Explored 584 nodes (78837 simplex iterations) in 3.77 seconds (4.53 work units)
Thread count was 20 (of 20 available processors)

Solution count 10: 9289.1 9250.45 9177.21 ... 5418

Optimal solution found (tolerance 5.00e-02)
Best objective 9.289095602463e+03, best bound 9.717055628596e+03, gap 4.6071%

User-callback calls 2676, time in user-callback 0.00 sec
Gurobi Optimizer version 9.5.2 build v9.5.2rc0 (win64)
Thread count: 10 physical cores, 20 logical processors, using up to 20 threads
Optimize a model with 11611 rows, 3985 columns and 36545 nonzeros
Model fingerprint: 0x1b7092f5
Variable types: 3217 continuous, 768 integer (768 binary)
Coefficient statistics:
  Matrix range     [1e-01, 8e+02]
  Objective range  [1e+00, 1e+00]
  Bounds range     [8e+02, 8e+02]
  RHS range        [1e+00, 1e+08]

MIP start from previous solve did not produce a new incumbent solution

Presolve removed 3036 rows and 879 columns
Presolve time: 0.11s
Presolved: 8575 rows, 3106 columns, 29966 nonzeros
Variable types: 2712 continuous, 394 integer (391 binary)
Found heuristic solution: objective 5414.4579212
Found heuristic solution: objective 5415.2359982

Root relaxation: objective 9.465101e+03, 5692 iterations, 0.14 seconds (0.14 work units)

    Nodes    |    Current Node    |     Objective Bounds      |     Work
 Expl Unexpl |  Obj  Depth IntInf | Incumbent    BestBd   Gap | It/Node Time

     0     0 9465.10064    0  112 5415.23600 9465.10064  74.8%     -    0s
H    0     0                    8133.9730513 9465.10064  16.4%     -    0s
     0     0 9396.51253    0  205 8133.97305 9396.51253  15.5%     -    0s
     0     0 9394.74566    0  204 8133.97305 9394.74566  15.5%     -    0s
     0     0 9394.74566    0  199 8133.97305 9394.74566  15.5%     -    0s
     0     0 9394.74218    0  202 8133.97305 9394.74218  15.5%     -    0s
     0     0 9344.27292    0  173 8133.97305 9344.27292  14.9%     -    0s
     0     0 9341.53648    0  192 8133.97305 9341.53648  14.8%     -    0s
     0     0 9339.05138    0  189 8133.97305 9339.05138  14.8%     -    1s
     0     0 9339.03581    0  191 8133.97305 9339.03581  14.8%     -    1s
H    0     0                    8421.6197422 9335.85564  10.9%     -    1s
     0     0 9335.85564    0  222 8421.61974 9335.85564  10.9%     -    1s
     0     0 9333.99456    0  230 8421.61974 9333.99456  10.8%     -    1s
     0     0 9333.89363    0  226 8421.61974 9333.89363  10.8%     -    1s
H    0     0                    8513.7901429 9333.84728  9.63%     -    1s
     0     0 9333.84728    0  206 8513.79014 9333.84728  9.63%     -    1s
     0     0 9333.84728    0  206 8513.79014 9333.84728  9.63%     -    1s
     0     0 9329.53006    0  209 8513.79014 9329.53006  9.58%     -    1s
     0     0 9328.69429    0  217 8513.79014 9328.69429  9.57%     -    1s
     0     0 9328.60391    0  226 8513.79014 9328.60391  9.57%     -    1s
     0     0 9328.51813    0  229 8513.79014 9328.51813  9.57%     -    1s
     0     0 9328.49302    0  230 8513.79014 9328.49302  9.57%     -    1s
H    0     0                    8654.0095054 9328.49302  7.79%     -    1s
H    0     0                    8723.6936399 9328.21557  6.93%     -    1s
     0     0 9328.21557    0  207 8723.69364 9328.21557  6.93%     -    1s
     0     0 9327.56282    0  212 8723.69364 9327.56282  6.92%     -    1s
     0     0 9327.55942    0  225 8723.69364 9327.55942  6.92%     -    1s
H    0     0                    8747.2420639 9327.55942  6.63%     -    1s
     0     0 9326.81876    0  202 8747.24206 9326.81876  6.63%     -    1s
     0     0 9325.96809    0  217 8747.24206 9325.96809  6.62%     -    1s
     0     0 9325.96809    0  217 8747.24206 9325.96809  6.62%     -    1s
     0     0 9325.96243    0  238 8747.24206 9325.96243  6.62%     -    1s
     0     0 9325.96243    0  241 8747.24206 9325.96243  6.62%     -    1s
     0     0 9325.96243    0  229 8747.24206 9325.96243  6.62%     -    2s
     0     0 9325.96243    0  235 8747.24206 9325.96243  6.62%     -    2s
     0     0 9325.96243    0  166 8747.24206 9325.96243  6.62%     -    2s
H    0     0                    8767.3750161 9325.96243  6.37%     -    2s
     0     0 9325.96243    0  217 8767.37502 9325.96243  6.37%     -    2s
H    0     0                    8787.1998161 9325.91084  6.13%     -    2s
     0     0 9325.91084    0  170 8787.19982 9325.91084  6.13%     -    2s
     0     0 9325.91084    0  170 8787.19982 9325.91084  6.13%     -    2s
     0     2 9325.91084    0  168 8787.19982 9325.91084  6.13%     -    2s
H  299   299                    8842.7998156 9321.94017  5.42%   209    3s
H  363   352                    8845.2998156 9321.94017  5.39%   195    3s
H  420   420                    8862.4095158 9321.94017  5.19%   184    4s
H  507   459                    8915.0168948 9321.94017  4.56%   167    5s
H  507   459                    8917.9030324 9321.94017  4.53%   167    5s
H  508   459                    8949.7835098 9321.94017  4.16%   167    5s
H  515   459                    8955.5313341 9321.94017  4.09%   167    5s

Cutting planes:
  Gomory: 8
  Implied bound: 6
  Clique: 1
  MIR: 388
  Flow cover: 337
  Relax-and-lift: 19

Explored 520 nodes (108199 simplex iterations) in 5.71 seconds (7.94 work units)
Thread count was 20 (of 20 available processors)

Solution count 10: 8955.53 8949.78 8917.9 ... 8747.24

Optimal solution found (tolerance 5.00e-02)
Best objective 8.955531334142e+03, best bound 9.321940172050e+03, gap 4.0914%

User-callback calls 3108, time in user-callback 0.00 sec
Gurobi Optimizer version 9.5.2 build v9.5.2rc0 (win64)
Thread count: 10 physical cores, 20 logical processors, using up to 20 threads
Optimize a model with 13184 rows, 4489 columns and 41554 nonzeros
Model fingerprint: 0x3a5908b1
Variable types: 3673 continuous, 816 integer (816 binary)
Coefficient statistics:
  Matrix range     [1e-01, 8e+02]
  Objective range  [1e+00, 1e+00]
  Bounds range     [8e+02, 8e+02]
  RHS range        [1e+00, 1e+08]

MIP start from previous solve did not produce a new incumbent solution

Presolve removed 3457 rows and 999 columns
Presolve time: 0.13s
Presolved: 9727 rows, 3490 columns, 33869 nonzeros
Variable types: 3096 continuous, 394 integer (391 binary)
Found heuristic solution: objective 5187.0054426
Found heuristic solution: objective 5553.3621730

Root relaxation: objective 8.996617e+03, 6004 iterations, 0.13 seconds (0.13 work units)

    Nodes    |    Current Node    |     Objective Bounds      |     Work
 Expl Unexpl |  Obj  Depth IntInf | Incumbent    BestBd   Gap | It/Node Time

     0     0 8996.61681    0  130 5553.36217 8996.61681  62.0%     -    0s
H    0     0                    7221.3060841 8996.61681  24.6%     -    0s
     0     0 8848.18560    0  162 7221.30608 8848.18560  22.5%     -    0s
H    0     0                    7611.9524701 8848.18560  16.2%     -    0s
     0     0 8817.28473    0  136 7611.95247 8817.28473  15.8%     -    0s
     0     0 8817.28473    0  120 7611.95247 8817.28473  15.8%     -    0s
H    0     0                    7970.3062606 8817.28473  10.6%     -    1s
     0     0 8733.08428    0  190 7970.30626 8733.08428  9.57%     -    1s
     0     0 8731.21467    0  173 7970.30626 8731.21467  9.55%     -    1s
     0     0 8731.21467    0  192 7970.30626 8731.21467  9.55%     -    1s
     0     0 8722.84785    0  221 7970.30626 8722.84785  9.44%     -    1s
H    0     0                    8050.3862873 8722.74345  8.35%     -    1s
     0     0 8722.74345    0  215 8050.38629 8722.74345  8.35%     -    1s
     0     0 8722.12139    0  206 8050.38629 8722.12139  8.34%     -    1s
     0     0 8722.12139    0  207 8050.38629 8722.12139  8.34%     -    1s
     0     0 8720.66304    0  204 8050.38629 8720.66304  8.33%     -    1s
     0     0 8720.66304    0  207 8050.38629 8720.66304  8.33%     -    1s
     0     0 8718.96585    0  215 8050.38629 8718.96585  8.30%     -    1s
     0     0 8718.79875    0  212 8050.38629 8718.79875  8.30%     -    1s
     0     0 8718.79732    0  215 8050.38629 8718.79732  8.30%     -    1s
     0     0 8718.08521    0  217 8050.38629 8718.08521  8.29%     -    1s
     0     0 8718.08503    0  217 8050.38629 8718.08503  8.29%     -    1s
H    0     0                    8170.5664033 8718.08503  6.70%     -    2s
     0     0 8718.05443    0  214 8170.56640 8718.05443  6.70%     -    2s
     0     0 8718.04191    0  223 8170.56640 8718.04191  6.70%     -    2s
     0     0 8717.49739    0  236 8170.56640 8717.49739  6.69%     -    2s
